94
0 31 87 56 4 25 72 40 66 80 
46 39 68 82 61 24 23 84 85 8 
60 20 19 7 45 22 28 34 27 35 
2 75 86 89 48 92 76 43 79 81 
41 69 13 88 91 65 54 51 30 83 
11 62 74 9 73 70 42 44 47 16 
63 50 18 36 52 58 49 12 29 3 
17 33 10 15 26 55 37 90 59 21 
5 93 77 57 14 67 6 38 64 1 
71 78 53 32 
